# STEP 1: Initialization
units           metal
boundary        p p p
atom_style      atomic

# STEP 2: System Definition
lattice         diamond 5.431
region          box block 0 10 0 10 0 6
create_box      1 box
create_atoms    1 box

# STEP 3: Force Field and Minimization
pair_style      sw
pair_coeff      * * Si.sw Si
mass            1 28.0855
minimize        1.0e-5 1.0e-7 1000 10000