#Si3N4anneal.txt

units           metal
dimension       3
boundary        p p p
atom_style      atomic

#Newton's third law
newton on

#setting_simulation_box
region          mybox0 block -500 500 -500 500 -500 500
create_box      2 mybox0 #2types atom

# Neighbor list settings 
neighbor        2.0 bin 
neigh_modify    every 1 delay 0 check yes

read_data 1000K_annealed_SiN_160A_2 add append

pair_style tersoff
pair_coeff * * Si3N4.tersoff Si N 


group           Si type 1
group           N type 2
group           SiN union Si N


velocity        SiN create 300 12345 mom yes dist gaussian

write_data      SiN_160Abefore.data

timestep        0.001 #ps

thermo          1000
thermo_style    custom step time ke pe etotal temp

dump            anneal all custom 100 Si3N4_annealing_process.dump id type x y z

fix             aneal SiN nvt temp 300.0 400.0 0.05
run             30000

unfix           aneal

fix             cool SiN nvt temp 400.0 300.0 0.05
run             30000

write_data      1000K_annealed_Si3N4_160A_2.data

undump          anneal
