#test_Si3N4_6-6-4anneal.txt

units           metal
dimension       3
boundary        p p p
atom_style      atomic

#Newton's third law
newton on

#setting_simulation_box
region          mybox0 prism 0.0 46.6176 0.0 40.3720258635 0.0 22.5272 -23.3088 0.0 0.0 units box
create_box      2 mybox0 #2types atom

# Neighbor list settings 
neighbor        2.0 bin 
neigh_modify    every 1 delay 0 check yes

read_data test_Si3N4_6-6-4 add append

pair_style tersoff
pair_coeff * * Si3N4.tersoff Si N 


group           Si type 1
group           N type 2
group           Si3N4 union Si N


velocity        Si3N4 create 300 12345 mom yes dist gaussian

write_data      test_Si3N4_6-6-4.data

timestep        0.001 #ps

thermo          1000
thermo_style    custom step time ke pe etotal temp

dump            anneal all custom 100 test_Si3N4_6-6-4_1000temp_annealing_process.dump id type x y z

fix             aneal Si3N4 nvt temp 300.0 1000.0 0.1
run             30000

unfix           aneal

fix             cool Si3N4 nvt temp 1000.0 300.0 0.1
run             30000

write_data      1000K_annealed_Si3N4_6-6-4.data

undump          anneal
